&GLOBAL
  PROJECT el
  RUN_TYPE WFN_OPT
  PRINT_LEVEL LOW
&END GLOBAL
&FORCE_EVAL
  METHOD Quickstep
  STRESS_TENSOR  ANALYTICAL
  &DFT
	    BASIS_SET_FILE_NAME /BASIS_MOLOPT
	    POTENTIAL_FILE_NAME /GTH_POTENTIALS
	    BASIS_SET_FILE_NAME /BASIS_ADMM_MOLOPT
	    BASIS_SET_FILE_NAME /BASIS_ADMM
            WFN_RESTART_FILE_NAME /el-RESTART.wfn
            UKS
!           RELAX_MULTIPLICITY 0.001
!            CHARGE -1
    &MGRID
      CUTOFF 600
    &END MGRID
    &QS
      METHOD GPW
    &END QS
    &SCF
      SCF_GUESS  RESTART
      MAX_SCF    100
      &OT
        MINIMIZER       CG
        PRECONDITIONER  FULL_SINGLE_INVERSE
      &END
      &OUTER_SCF
!        EPS_SCF  1.0E-7
!        MAX_SCF  50
      &END
!      &PRINT
!        &RESTART OFF
!        &END
!      &END
    &END SCF
!    &SCF
!      SCF_GUESS RESTART
!      EPS_SCF 1.0E-6
!      ADDED_MOS 10
!      MAX_SCF 100
!      &MIXING
!         METHOD BROYDEN_MIXING
!      &END MIXING
!     &SMEAR
!        METHOD FERMI_DIRAC
!        ELECTRONIC_TEMPERATURE 300.0
!      &END SMEAR
!    &END SCF
    &AUXILIARY_DENSITY_MATRIX_METHOD
        METHOD BASIS_PROJECTION
        ADMM_PURIFICATION_METHOD NONE
     &END AUXILIARY_DENSITY_MATRIX_METHOD
    &PRINT
!       &MO LOW
!          EIGENVALUES
!          &EACH
!              QS_SCF 0
!          &END EACH
!       &END MO
       &MO_CUBES
        NHOMO 1
        NLUMO 1
       WRITE_CUBE 
       &END MO_CUBES
!       &TOT_DENSITY_CUBE
!       &END
!      &PDOS
!            # print all projected DOS available:
!            NLUMO 1
!            # split the density by quantum number:
!            COMPONENTS
!&END
    &END PRINT
#These are the coefficients used for PBE0
&XC
 &XC_FUNCTIONAL
  &PBE
   SCALE_X 0.70
   SCALE_C 1.0
 &END PBE
 &PBE_HOLE_T_C_LR
 CUTOFF_RADIUS 7.0
 SCALE_X 0.30
 &END PBE_HOLE_T_C_LR
&END XC_FUNCTIONAL
&HF
&SCREENING
EPS_SCHWARZ 1.0E-6
SCREEN_ON_INITIAL_P FALSE
&END SCREENING
&INTERACTION_POTENTIAL
POTENTIAL_TYPE TRUNCATED
CUTOFF_RADIUS 7.0
T_C_G_DATA /t_c_g.dat
&END INTERACTION_POTENTIAL
&MEMORY
MAX_MEMORY 3600
EPS_STORAGE_SCALING 0.1
&END MEMORY
FRACTION 0.30
&END HF
      ! non-local vdW part
    &END XC
  &END DFT
  &SUBSYS
    &CELL
A  28.5200    0.00000   0.00000
B  0.00000   28.5200    0.00000
C  0.00000   0.00000   28.52000
  &END CELL
   &COORD
  C         0.7017774336       -0.0000530028        3.4948394110
  C         1.4281346520        1.1772177466        3.0403849449
  C         2.6051430804        0.7275613243        2.3089136443
  C        13.5582570831        0.0000069471        3.4946476484
  C        13.5582449498        0.0000065945       10.7653372689
  C         0.7017763888       -0.0000300465       10.7651854599
  C         3.4948923331        0.7017506450       -0.0000065093
  C         3.4950074292       13.5582040619       -0.0000150269
  C        10.7651126059       13.5582016213        0.0000058162
  C        10.7652143207        0.7017774013        0.0000134621
  C         0.0000108355        3.4949113837        0.7017738439
  C         0.0000034205        3.4948586653       13.5582184923
  C        -0.0000100165       10.7651345863       13.5582084354
  C        -0.0000135135       10.7650821942        0.7017588398
  C         0.7017665745        7.1300363952       10.6248708071
  C        13.5582255744        7.1300039837       10.6246974919
  C        13.5582325594        7.1299807049        3.6352626644
  C         0.7017764636        7.1300242126        3.6350706121
  C         3.4946808034        7.8317837831        7.1300094461
  C         3.4947887246        6.4282398398        7.1300054417
  C        10.7653342775        6.4282418168        7.1299903508
  C        10.7653831685        7.8317264116        7.1300022588
  C        -0.0000181734       10.6248964408        7.8317525568
  C        -0.0000168433       10.6248946255        6.4282834230
  C         0.0000000473        3.6351587994        6.4282437927
  C        -0.0000119815        3.6351473076        7.8317718514
  C         7.8317733338       -0.0000135713       10.6246846452
  C         6.4282507091       -0.0000129278       10.6246419838
  C         6.4282641278       -0.0000205560        3.6352438589
  C         7.8317914806       -0.0000175362        3.6352060308
  C        10.6246556644        0.7017551808        7.1299945315
  C        10.6248267027       13.5582173579        7.1300044788
  C         3.6350355804       13.5582321750        7.1300168609
  C         3.6351479360        0.7017414987        7.1299924198
  C         7.1300228256        3.4947089559        7.8317644176
  C         7.1300226575        3.4946603910        6.4282495473
  C         7.1300147076       10.7652834075        6.4282623918
  C         7.1299964994       10.7652889840        7.8317752155
  C         7.8317999535        7.1300024020        3.4947029408
  C         6.4282750000        7.1299917270        3.4947107387
  C         6.4282792282        7.1300119370       10.7653209514
  C         7.8317906256        7.1300196739       10.7653141926
  C        10.6247036451        7.8317342170       -0.0000052505
  C        10.6247361355        6.4282566211       -0.0000014231
  C         3.6350850303        6.4282295998       -0.0000225064
  C         3.6351509226        7.8317586133       -0.0000356791
  C         7.1300228274       10.6249257964        0.7017602914
  C         7.1300253605       10.6248369328       13.5582407730
  C         7.1300187537        3.6353063343       13.5582481535
  C         7.1300231935        3.6351590919        0.7017677148
  C        12.8318559231       13.0827570155        3.0403297685
  C        12.8318826686        1.1772718544       11.2196621399
  C         1.4280677990       13.0828141520       11.2196965031
  C         3.0403962602        1.4281339616        1.1772550323
  C         3.0403264749       12.8318641840       13.0827438782
  C        11.2196391887       12.8318334746        1.1772334969
  C        11.2196398719        1.4281518770       13.0827373967
  C         1.1772762354        3.0404340743        1.4281677558
  C        13.0827418851        3.0403431157       12.8318938030
  C         1.1772110406       11.2196640427       12.8318147452
  C        13.0827485302       11.2196651221        1.4281101799
  C        12.8318761912       13.0827473707       11.2196758312
  C         1.4281211751        1.1772306979       11.2196326132
  C         1.4280968487       13.0827922323        3.0403544526
  C        12.8318993090        1.1772522097        3.0403007950
  C        11.2196611635       12.8318626440       13.0827676565
  C        11.2196541110        1.4281510984        1.1772667624
  C         3.0403812279        1.4281422045       13.0827207570
  C         3.0403737482       12.8318399278        1.1772325346
  C        13.0827413886       11.2196783709       12.8318956691
  C         1.1772228691       11.2196144712        1.4281559965
  C        13.0827813259        3.0402945118        1.4281175660
  C         1.1772805118        3.0404339447       12.8318245156
  C         1.4281381164        8.3073075687       10.1704076651
  C        12.8318872905        5.9527391531       10.1703333195
  C        12.8318648414        8.3072285697        4.0896419462
  C         1.4281377968        5.9527307972        4.0895567267
  C         3.0403962706        8.5582129023        8.3072864835
  C         3.0403885286        5.7018478200        5.9527246530
  C        11.2196938669        5.7018860677        8.3072515471
  C        11.2196360003        8.5581253604        5.9527261444
  C         1.1771819738       10.1703515857        8.5581073222
  C        13.0827226598       10.1703675858        5.7018661832
  C         1.1772749559        4.0895329355        5.7018248847
  C        13.0827300802        4.0896590568        8.5581108655
  C        12.8319066320        5.9527414339        4.0896933129
  C         1.4281518426        8.3073030491        4.0895653419
  C         1.4281262725        5.9527397127       10.1704266197
  C        12.8318531666        8.3072560991       10.1703536640
  C        11.2196899808        5.7018748069        5.9527318554
  C        11.2196508836        8.5581344003        8.3072688716
  C         3.0404256912        8.5582308706        5.9527253220
  C         3.0403600397        5.7018670925        8.3072815389
  C        13.0827434591        4.0896596843        5.7018728602
  C         1.1772537146        4.0895742743        8.5581573930
  C        13.0827329949       10.1703261155        8.5581287749
  C         1.1772098695       10.1704170093        5.7018812156
  C         8.5581417264        1.1772725657       10.1703778362
  C         5.7018321009       13.0827436416       10.1704101943
  C         5.7018340016        1.1772703635        4.0895422415
  C         8.5581546878       13.0827560239        4.0896526355
  C        10.1703601294        1.4281102513        8.3072623149
  C        10.1703669921       12.8318558034        5.9527728008
  C         4.0896773942       12.8319183462        8.3072240677
  C         4.0895791304        1.4281380549        5.9527243187
  C         8.3073007455        3.0403389286        8.5581135026
  C         5.9527217330        3.0404449849        5.7018048528
  C         8.3072873119       11.2196512321        5.7018786779
  C         5.9527390145       11.2196627367        8.5581681798
  C         5.7017965277       13.0827209697        4.0895272866
  C         8.5581428772        1.1772423424        4.0896593109
  C         8.5581167425       13.0827546751       10.1703335054
  C         5.7018282499        1.1772858757       10.1704397481
  C         4.0896239452       12.8318918970        5.9527961534
  C         4.0896002800        1.4281040772        8.3072694345
  C        10.1703539174        1.4281235655        5.9527439193
  C        10.1703516394       12.8318846691        8.3072485689
  C         5.9527244173       11.2195911447        5.7018462372
  C         8.3072601790       11.2197014141        8.5581107161
  C         5.9527305785        3.0403964874        8.5581558521
  C         8.3073153361        3.0403738883        5.7018656552
  C         8.5581601646        8.3072469835        3.0403041363
  C         5.7018367868        5.9526919118        3.0404321893
  C         5.7018431523        8.3073045690       11.2195662062
  C         8.5581284827        5.9527485084       11.2196898889
  C        10.1703609974        8.5581193999        1.1772347863
  C        10.1703402793        5.7019066443       13.0827603824
  C         4.0895841341        5.7018363764        1.1772420346
  C         4.0895222726        8.5582089156       13.0827115638
  C         8.3072859534       10.1703815890        1.4281198491
  C         5.9527661676       10.1704160702       12.8318534406
  C         8.3073129211        4.0896206264       12.8318891851
  C         5.9527421789        4.0895476257        1.4281557493
  C         5.7018563178        5.9527097876       11.2195761535
  C         8.5581573606        8.3072644826       11.2196946423
  C         8.5581377728        5.9527506580        3.0402834508
  C         5.7018272345        8.3073003439        3.0404656453
  C         4.0895985290        5.7018553131       13.0827342590
  C         4.0895184110        8.5581888260        1.1772483982
  C        10.1703827187        8.5581377306       13.0827492997
  C        10.1703327861        5.7018942939        1.1772327107
  C         5.9527269516        4.0895608082       12.8318352987
  C         8.3072988418        4.0896145413        1.4281176604
  C         5.9527377078       10.1704728026        1.4281510932
  C         8.3072689943       10.1703313310       12.8318985977
  C        11.6548697329       13.5323999509        2.3088716025
  C        11.6549776299        0.7275784111       11.9511784471
  C         2.6051333279       13.5324143279       11.9510737436
  C         2.3089223654        2.6051432125        0.7275779894
  C         2.3088702734       11.6548503826       13.5324044198
  C        11.9511439751       11.6548877207        0.7275558632
  C        11.9511728450        2.6050351946       13.5324440157
  C         0.7276040710        2.3089067449        2.6051518298
  C        13.5324289575        2.3088478673       11.6549699509
  C         0.7275458628       11.9511411126       11.6548445869
  C        13.5324092387       11.9511228039        2.6050816408
  C        11.6549065644       13.5323873146       11.9511415282
  C         2.6050932485        0.7275574155       11.9511185023
  C         2.6051944302       13.5323956699        2.3089610415
  C        11.6549657056        0.7275787573        2.3088413108
  C        11.9511608680       11.6549339345       13.5324371363
  C        11.9511644105        2.6050902134        0.7275944136
  C         2.3088977176        2.6051041912       13.5324237420
  C         2.3088979304       11.6548161568        0.7275683583
  C        13.5324154740       11.9511377721       11.6549487985
  C         0.7275712748       11.9510832508        2.6051775129
  C        13.5324560516        2.3088078134        2.6050243437
  C         0.7276005193        2.3089082420       11.6548591168
  C         2.6050609937        7.8576027621        9.4388513256
  C        11.6549609394        6.4024198442        9.4388589917
  C        11.6549842029        7.8575392715        4.8211840432
  C         2.6051469589        6.4024055574        4.8210496586
  C         2.3088379561        9.7351148050        7.8575962946
  C         2.3088885420        4.5248775703        6.4024211340
  C        11.9511654038        4.5249582294        7.8575582622
  C        11.9511575543        9.7350157667        6.4024290176
  C         0.7275680299        9.4389111181        9.7351112794
  C        13.5323840742        9.4388597032        4.5248960098
  C         0.7276021117        4.8210351184        4.5248350422
  C        13.5324139807        4.8211249323        9.7350516979
  C        11.6549638453        6.4024087210        4.8211465227
  C         2.6050910826        7.8576044348        4.8211444642
  C         2.6051175705        6.4024225361        9.4389469724
  C        11.6549776057        7.8575531466        9.4388161896
  C        11.9511946281        4.5249735862        6.4024236247
  C        11.9511485934        9.7350339728        7.8575725867
  C         2.3088346257        9.7351177146        6.4024398351
  C         2.3089004990        4.5248724587        7.8575987735
  C        13.5324199112        4.8211410103        4.5249664947
  C         0.7275987312        4.8210506528        9.7351575491
  C        13.5323962925        9.4388567366        9.7351022378
  C         0.7275798489        9.4389411718        4.5248683654
  C         9.7350697652        0.7275893317        9.4388759656
  C         4.5248553032       13.5323989674        9.4389196413
  C         4.5248824139        0.7275691579        4.8210875079
  C         9.7351813429       13.5323847461        4.8210991855
  C         9.4388977821        2.6050316919        7.8575758304
  C         9.4388753676       11.6549252909        6.4024562097
  C         4.8211293672       11.6549105151        7.8575962114
  C         4.8211448148        2.6050778826        6.4024201521
  C         7.8576100874        2.3088787967        9.7350732779
  C         6.4024551897        2.3088452462        4.5249262257
  C         7.8576158337       11.9510737302        4.5248785482
  C         6.4024524645       11.9511899221        9.7350626471
  C         4.5248040179       13.5323890608        4.8210683080
  C         9.7350917727        0.7275810216        4.8211520954
  C         9.7351397862       13.5323795354        9.4389165666
  C         4.5249072884        0.7275664673        9.4389128629
  C         4.8211298171       11.6549090686        6.4024401870
  C         4.8210939120        2.6050975186        7.8576065929
  C         9.4388537807        2.6050081123        6.4024466294
  C         9.4388860789       11.6549360608        7.8575885488
  C         6.4024348095       11.9511426671        4.5249274298
  C         7.8576005569       11.9511073932        9.7350974188
  C         6.4024447816        2.3088432388        9.7350609943
  C         7.8576303378        2.3088853408        4.5249231187
  C         9.7350568188        7.8575498351        2.3087959817
  C         4.5248748080        6.4024039478        2.3089113420
  C         4.5249518326        7.8575933985       11.9511545671
  C         9.7350719423        6.4024241208       11.9511499716
  C         9.4389190272        9.7350904057        0.7275787095
  C         9.4388999567        4.5249490596       13.5324359660
  C         4.8210818263        4.5248241055        0.7275874304
  C         4.8211137374        9.7351348866       13.5323944825
  C         7.8576158701        9.4388951337        2.6051082415
  C         6.4024509956        9.4388431568       11.6549466488
  C         7.8576165118        4.8211076408       11.6549533711
  C         6.4024518145        4.8211032237        2.6050862126
  C         4.5248914881        6.4024085385       11.9510693522
  C         9.7350399367        7.8575553594       11.9512228383
  C         9.7350678788        6.4024285258        2.3088236416
  C         4.5249154417        7.8575998837        2.3088628635
  C         4.8211050626        4.5248622211       13.5324083435
  C         4.8210789551        9.7351555754        0.7275882102
  C         9.4388835324        9.7350442963       13.5324259908
  C         9.4389271194        4.5248993014        0.7275859022
  C         6.4024544682        4.8211260497       11.6549439129
  C         7.8576215980        4.8210948091        2.6050784003
  C         6.4024318220        9.4388809104        2.6050904038
  C         7.8576057245        9.4388598633       11.6549361936
  C         0.7017882392       -0.0000287057       17.7548077962
  C         1.4281361980        1.1772345001       17.3003853655
  C         2.6050878115        0.7275706941       16.5688775675
  C        13.5582494304        0.0000160814       17.7546635963
  C        13.5582491499        0.0000127177       25.0252618757
  C         0.7017912335       -0.0000384877       25.0251884068
  C         3.4947310217        0.7017516306       14.2599970416
  C         3.4949422919       13.5582139173       14.2599787642
  C        10.7651821108       13.5581944569       14.2600064843
  C        10.7653773219        0.7017662251       14.2600140028
  C         0.0000045914        3.4948642819       14.9617746695
  C         0.0000126296        3.4948979592       27.8182234124
  C        -0.0000057686       10.7651174879       27.8182121720
  C        -0.0000225250       10.7651229078       14.9617602927
  C         0.7017773952        7.1300272334       24.8848589680
  C        13.5582489160        7.1300058852       24.8847441569
  C        13.5582425368        7.1300039780       17.8953292627
  C         0.7017952424        7.1300168823       17.8951328197
  C         3.4946991262        7.8317526818       21.3900149740
  C         3.4948067324        6.4282544107       21.3900110742
  C        10.7652697685        6.4282601308       21.3899928301
  C        10.7653158396        7.8317302022       21.3899936949
  C        -0.0000049257       10.6248862054       22.0917396415
  C         0.0000101530       10.6249363281       20.6882722244
  C         0.0000283988        3.6351306775       20.6882469236
  C         0.0000229071        3.6351578793       22.0917782162
  C         7.8317580835       -0.0000062400       24.8848341036
  C         6.4282243045       -0.0000118139       24.8847657207
  C         6.4282634573       -0.0000069874       17.8953584679
  C         7.8317694245       -0.0000078113       17.8953318538
  C        10.6246969598        0.7017509785       21.3899920021
  C        10.6248120993       13.5581990395       21.3900010252
  C         3.6350668172       13.5582310916       21.3900145384
  C         3.6351964145        0.7017435957       21.3900068061
  C         7.1300045716        3.4947021542       22.0917212908
  C         7.1300054026        3.4947351666       20.6882347924
  C         7.1300039536       10.7652474034       20.6882580313
  C         7.1299871968       10.7652650595       22.0917395672
  C         7.8317724021        7.1300043693       17.7547084609
  C         6.4282917484        7.1300069151       17.7547061359
  C         6.4282725213        7.1300102322       25.0252943833
  C         7.8317604739        7.1300112323       25.0252556576
  C        10.6246181454        7.8317291213       14.2600106781
  C        10.6246902045        6.4282515317       14.2600181564
  C         3.6351013397        6.4282215852       14.2600094107
  C         3.6351986806        7.8317694021       14.2600077797
  C         7.1300281133       10.6247950948       14.9617550011
  C         7.1300120301       10.6248563036       27.8182194686
  C         7.1300185810        3.6352027875       27.8182266718
  C         7.1300319113        3.6353670819       14.9617673276
  C        12.8318449963       13.0827263813       17.3003518299
  C        12.8318484920        1.1772912782       25.4795992069
  C         1.4280801288       13.0828034131       25.4796797706
  C         3.0403944246        1.4281314980       15.4372791400
  C         3.0403465381       12.8318623125       27.3427430489
  C        11.2196437776       12.8318275436       15.4372350592
  C        11.2195835855        1.4281916143       27.3427479868
  C         1.1772914695        3.0404644325       15.6881830339
  C        13.0827604350        3.0403982977       27.0918789484
  C         1.1772072333       11.2196526470       27.0918225241
  C        13.0827495042       11.2196634304       15.6881187375
  C        12.8318511600       13.0827296024       25.4796335415
  C         1.4281372459        1.1772186776       25.4796384374
  C         1.4281128033       13.0827870289       17.3003718731
  C        12.8318789558        1.1772690235       17.3003385551
  C        11.2196115843       12.8318366261       27.3427624388
  C        11.2196462340        1.4281566675       15.4372809585
  C         3.0403857291        1.4281253926       27.3427353341
  C         3.0403845564       12.8318614294       15.4372390142
  C        13.0827553596       11.2196632637       27.0918807522
  C         1.1772354973       11.2195891464       15.6881759513
  C        13.0827458457        3.0403507050       15.6881371720
  C         1.1772717832        3.0404337922       27.0918289696
  C         1.4281415921        8.3072673992       24.4303588445
  C        12.8318708422        5.9527507832       24.4303694249
  C        12.8318549002        8.3072439893       18.3496588728
  C         1.4281723093        5.9527373473       18.3496003317
  C         3.0403499873        8.5581672345       22.5672515253
  C         3.0403058020        5.7018963579       20.2127850423
  C        11.2196615356        5.7018826962       22.5672419533
  C        11.2196846560        8.5581067164       20.2127554344
  C         1.1771985164       10.1703493806       22.8181106064
  C        13.0827457868       10.1703278110       19.9618639735
  C         1.1772810521        4.0896037245       19.9618565791
  C        13.0827244722        4.0895975677       22.8181543713
  C        12.8318939542        5.9527556531       18.3496891162
  C         1.4281832354        8.3072915804       18.3495817760
  C         1.4281482431        5.9527701446       24.4303838101
  C        12.8318597779        8.3072482650       24.4303567222
  C        11.2197123450        5.7019137360       20.2127507180
  C        11.2196634541        8.5581232676       22.5672371602
  C         3.0403771326        8.5581768939       20.2127697612
  C         3.0403051196        5.7019107770       22.5672416382
  C        13.0827533606        4.0896835843       19.9618778646
  C         1.1772835600        4.0895868425       22.8181758707
  C        13.0827411331       10.1703508908       22.8181403046
  C         1.1772233182       10.1703741703       19.9618927997
  C         8.5581612054        1.1772654929       24.4303971718
  C         5.7018030394       13.0827361782       24.4303990751
  C         5.7018454953        1.1772775460       18.3495907707
  C         8.5581234271       13.0827406568       18.3496681062
  C        10.1704212174        1.4281855949       22.5672538745
  C        10.1703614762       12.8318392766       20.2127579671
  C         4.0896759656       12.8318806913       22.5672034796
  C         4.0896295165        1.4281141550       20.2127426658
  C         8.3072690016        3.0403834258       22.8181271114
  C         5.9527646856        3.0403200063       19.9618772722
  C         8.3072369004       11.2197086381       19.9619108642
  C         5.9527612936       11.2196819959       22.8181311418
  C         5.7018046383       13.0827150923       18.3495607835
  C         8.5581289344        1.1772578699       18.3496654437
  C         8.5581292144       13.0827392166       24.4303388301
  C         5.7018192158        1.1772562473       24.4303928646
  C         4.0896436842       12.8318844443       20.2128007088
  C         4.0896220258        1.4281440547       22.5672509539
  C        10.1703679561        1.4281157412       20.2127222465
  C        10.1703778787       12.8318242508       22.5672425247
  C         5.9527635065       11.2196686151       19.9618825508
  C         8.3072296082       11.2196943721       22.8180857840
  C         5.9527363973        3.0403885377       22.8181344467
  C         8.3072518399        3.0402960448       19.9619038450
  C         8.5581322191        8.3072207474       17.3002760318
  C         5.7019024446        5.9527340534       17.3003745693
  C         5.7018735025        8.3072508901       25.4796445992
  C         8.5581265955        5.9527690191       25.4796822947
  C        10.1703720748        8.5581458711       15.4372596187
  C        10.1703704049        5.7018621731       27.3427603067
  C         4.0896080849        5.7018474403       15.4372818963
  C         4.0895753333        8.5581868789       27.3427143982
  C         8.3072797870       10.1703558297       15.6881364966
  C         5.9527476125       10.1704372397       27.0918134028
  C         8.3073046694        4.0895594233       27.0918292145
  C         5.9527408837        4.0895662452       15.6881849082
  C         5.7018813075        5.9527577890       25.4796480858
  C         8.5581216727        8.3072356262       25.4797105690
  C         8.5581037002        5.9527764097       17.3002645010
  C         5.7018638891        8.3072723764       17.3004135889
  C         4.0896288935        5.7018563843       27.3427314034
  C         4.0895121405        8.5582233813       15.4373002153
  C        10.1703696059        8.5581454459       27.3427572721
  C        10.1703241669        5.7018844293       15.4372556702
  C         5.9527313079        4.0895367279       27.0918049561
  C         8.3073056427        4.0896274808       15.6881601170
  C         5.9527546180       10.1704559184       15.6881784538
  C         8.3072656458       10.1703718966       27.0918520439
  C        11.6548793634       13.5323752288       16.5688597673
  C        11.6549080292        0.7276051748       26.2111417223
  C         2.6051504008       13.5323966282       26.2110599664
  C         2.3088952718        2.6050902804       14.9876015159
  C         2.3088738760       11.6548432250       27.7923781805
  C        11.9511757284       11.6549197421       14.9875632947
  C        11.9511731365        2.6050927691       27.7924374146
  C         0.7276253034        2.3089143085       16.8651416760
  C        13.5324347879        2.3088610968       25.9149555220
  C         0.7275680967       11.9511315070       25.9148502832
  C        13.5324152634       11.9511397668       16.8650550357
  C        11.6548620390       13.5323714515       26.2111108935
  C         2.6051235840        0.7275673678       26.2111007160
  C         2.6051627708       13.5323933629       16.5689266556
  C        11.6549867399        0.7275788556       16.5688123799
  C        11.9511408925       11.6548968954       27.7924126186
  C        11.9512005067        2.6050257763       14.9875807806
  C         2.3089100250        2.6051327305       27.7923907952
  C         2.3088793367       11.6548624907       14.9875917217
  C        13.5324164868       11.9511263370       25.9149242715
  C         0.7275846533       11.9511050007       16.8651566468
  C        13.5324274381        2.3088257495       16.8650270549
  C         0.7276204361        2.3088970943       25.9148652582
  C         2.6050458455        7.8575811513       23.6987995428
  C        11.6549316859        6.4024233035       23.6988594216
  C        11.6549765974        7.8575530190       19.0811864881
  C         2.6051547133        6.4024160536       19.0810891299
  C         2.3088089836        9.7350694692       22.1175819975
  C         2.3088960145        4.5248872851       20.6624427228
  C        11.9511681318        4.5249448366       22.1175613634
  C        11.9511561068        9.7350442492       20.6624179929
  C         0.7275812534        9.4388593049       23.9950762538
  C        13.5324164139        9.4388263187       18.7849160551
  C         0.7276130608        4.8210645049       18.7848534000
  C        13.5324257264        4.8211411104       23.9950709979
  C        11.6549704140        6.4024346841       19.0811511212
  C         2.6050885931        7.8575888209       19.0811811439
  C         2.6051236648        6.4024320819       23.6989027975
  C        11.6549495735        7.8575682459       23.6988254809
  C        11.9511563379        4.5249464042       20.6624097745