a&GLOBAL
  PROJECT el
  RUN_TYPE CELL_OPT
  PRINT_LEVEL LOW
  EXTENDED_FFT_LENGTHS
&END GLOBAL
!&EXT_RESTART
! RESTART_FILE_NAME /home/fambrosi/fullerenes/C60/cell-opt/pbealpha+vdw/1x1x1/el.pbe0/el-1.restart
!&END EXT_RESTART
&FORCE_EVAL
  METHOD Quickstep
  STRESS_TENSOR  ANALYTICAL
  &DFT
	    BASIS_SET_FILE_NAME /usr/local/cp2k-6.1/data/BASIS_MOLOPT
	    POTENTIAL_FILE_NAME /usr/local/cp2k-6.1/data/GTH_POTENTIALS
	    BASIS_SET_FILE_NAME /usr/local/cp2k-6.1/data/BASIS_ADMM_MOLOPT
	    BASIS_SET_FILE_NAME /usr/local/cp2k-6.1/data/BASIS_ADMM
           WFN_RESTART_FILE_NAME /home/fambrosi/fullerenes/C60/cell-opt/pbealpha+vdw/1x1x1/el.pbe0/el-RESTART.wfn
!            UKS
!           RELAX_MULTIPLICITY 0.001
!            CHARGE -1
    &MGRID
      CUTOFF 600
    &END MGRID
    &QS
      METHOD GPW
    &END QS
    &SCF
      SCF_GUESS  RESTART
      MAX_SCF    50
      &OT
        MINIMIZER       CG
        PRECONDITIONER  FULL_SINGLE_INVERSE
      &END
      &OUTER_SCF
!        EPS_SCF  1.0E-7
!        MAX_SCF  50
      &END
!      &PRINT
!        &RESTART OFF
!        &END
!      &END
    &END SCF
!    &SCF
!      SCF_GUESS RESTART
!      EPS_SCF 1.0E-6
!      ADDED_MOS 10
!      MAX_SCF 100
!      &MIXING
!         METHOD BROYDEN_MIXING
!      &END MIXING
!     &SMEAR
!        METHOD FERMI_DIRAC
!        ELECTRONIC_TEMPERATURE 300.0
!      &END SMEAR
!    &END SCF
    &AUXILIARY_DENSITY_MATRIX_METHOD
        METHOD BASIS_PROJECTION
        ADMM_PURIFICATION_METHOD NONE
     &END AUXILIARY_DENSITY_MATRIX_METHOD
    &PRINT
!       &MO LOW
!          EIGENVALUES
!          &EACH
!              QS_SCF 0
!          &END EACH
!       &END MO
!       &MO_CUBES
!        NHOMO 1
!        NLUMO 1
!       WRITE_CUBE F
!       &END MO_CUBES
!       &TOT_DENSITY_CUBE
!       &END
!      &PDOS
!            # print all projected DOS available:
!            NLUMO 1
!            # split the density by quantum number:
!            COMPONENTS
!&END
    &END PRINT
#These are the coefficients used for PBE0
&XC
 &XC_FUNCTIONAL
  &PBE
   SCALE_X 0.79
   SCALE_C 1.0
 &END PBE
 &PBE_HOLE_T_C_LR
 CUTOFF_RADIUS 6.5000
 SCALE_X 0.21
 &END PBE_HOLE_T_C_LR
&END XC_FUNCTIONAL
&HF
&SCREENING
EPS_SCHWARZ 1.0E-6
SCREEN_ON_INITIAL_P FALSE
&END SCREENING
&INTERACTION_POTENTIAL
POTENTIAL_TYPE TRUNCATED
CUTOFF_RADIUS 6.5000
T_C_G_DATA /usr/local/cp2k-6.1/data/t_c_g.dat
&END INTERACTION_POTENTIAL
&MEMORY
MAX_MEMORY 3600
EPS_STORAGE_SCALING 0.1
&END MEMORY
FRACTION 0.21
&END HF
      ! non-local vdW part
      &vdW_POTENTIAL
         DISPERSION_FUNCTIONAL NON_LOCAL
         &NON_LOCAL
           TYPE RVV10
           PARAMETERS  7.8  0.0093
           KERNEL_FILE_NAME  /usr/local/cp2k-6.1/data/rVV10_kernel_table.dat
           CUTOFF      400
         &END NON_LOCAL
      &END vdW_POTENTIAL
    &END XC
  &END DFT
  &SUBSYS
    &CELL
A  13.960    0.00000   0.00000
B  0.00000   13.960   0.00000
C  0.00000   0.00000   13.960
 SYMMETRY CUBIC 
 &END CELL
   &COORD
  C         0.6946030260        0.0000090948        3.4658625389
  C         1.4147300779        1.1664854035        3.0122661081
  C         2.5787296258        0.7207965027        2.2841807356
  C        13.2657445758       -0.0000094777        3.4659884002
  C        13.2657104869        0.0000031246       10.4943673060
  C         0.6945678540       -0.0000218596       10.4944237521
  C         3.4658973971        0.6945724806        0.0000112704
  C         3.4658814477       13.2657156326       -0.0000033992
  C        10.4943849685       13.2657198161       -0.0000039623
  C        10.4943807869        0.6945738187       -0.0000140908
  C         0.0000446497        3.4659114730        0.6945882861
  C         0.0000077348        3.4659139599       13.2657296280
  C         0.0000124804       10.4944409738       13.2657179407
  C         0.0000223535       10.4943543759        0.6945733911
  C         0.6945621395        6.9801640641       10.4459746737
  C        13.2657102520        6.9801553512       10.4460733379
  C        13.2657565765        6.9801538534        3.5141974903
  C         0.6946057678        6.9801576112        3.5143140572
  C         3.4658719789        7.6747252900        6.9801554047
  C         3.4659404045        6.2855651748        6.9801444149
  C        10.4943767694        6.2855741823        6.9801697755
  C        10.4943632570        7.6747377914        6.9801509922
  C         0.0000145724       10.4460316719        7.6747191514
  C         0.0000179983       10.4461022043        6.2855596432
  C         0.0000202270        3.5142380810        6.2855695551
  C        -0.0000028423        3.5142208575        7.6747276237
  C         7.6747092465        0.0000332336       10.4460977827
  C         6.2855504787        0.0000145030       10.4459972596
  C         6.2855967752       -0.0000272571        3.5142710179
  C         7.6747530050       -0.0000272126        3.5142205688
  C        10.4460842507        0.6945815841        6.9801670304
  C        10.4460671995       13.2657287568        6.9800916581
  C         3.5142729090       13.2657130732        6.9801427079
  C         3.5142646445        0.6945650610        6.9802170092
  C         6.9801136924        3.4658324407        7.6747505267
  C         6.9801739370        3.4659859988        6.2855893263
  C         6.9801723794       10.4944235184        6.2855416380
  C         6.9801064774       10.4943599788        7.6747003779
  C         7.6747305299        6.9801266820        3.4659158899
  C         6.2855689675        6.9801258906        3.4659127681
  C         6.2855579401        6.9801699799       10.4944276750
  C         7.6747190731        6.9801633433       10.4943173158
  C        10.4460997889        7.6747156378       -0.0000334572
  C        10.4460529020        6.2855567289        0.0000326166
  C         3.5142562677        6.2855772059        0.0000347225
  C         3.5142321064        7.6747365770       -0.0000366815
  C         6.9801449717       10.4460589302        0.6945595881
  C         6.9801421517       10.4460154353       13.2657069753
  C         6.9801274719        3.5142764733       13.2657279508
  C         6.9801325404        3.5142642522        0.6945768707
  C        12.5456051805       12.7938766012        3.0121878473
  C        12.5455685849        1.1664547529       10.9480837096
  C         1.4147291175       12.7938130009       10.9480198010
  C         3.0122376743        1.4147107426        1.1664631277
  C         3.0122681101       12.5455659410       12.7938304384
  C        10.9480910695       12.5455993849        1.1664598462
  C        10.9480626012        1.4147349042       12.7938476877
  C         1.1664837314        3.0122397900        1.4147577782
  C        12.7938444169        3.0122370549       12.5456065502
  C         1.1664772225       10.9480437034       12.5455517309
  C        12.7938782845       10.9480930929        1.4146823684
  C        12.5455751952       12.7938534119       10.9480811484
  C         1.4147437186        1.1664415713       10.9480450485
  C         1.4147630099       12.7938485517        3.0122463156
  C        12.5456157878        1.1664205782        3.0121847154
  C        10.9480709874       12.5455849844       12.7938467237
  C        10.9480676470        1.4147100038        1.1664480626
  C         3.0122255567        1.4147476819       12.7938621234
  C         3.0122288140       12.5455438578        1.1664504506
  C        12.7938149316       10.9480439061       12.5455818968
  C         1.1664317544       10.9480767759        1.4147641140
  C        12.7938594477        3.0122207958        1.4147009787
  C         1.1664318552        3.0122253972       12.5455471127
  C         1.4147467971        8.1466475313        9.9924627113
  C        12.5455687754        5.8136910393        9.9923923192
  C        12.5455938820        8.1465665423        3.9679504613
  C         1.4147201659        5.8136471376        3.9678663746
  C         3.0122471677        8.3948851682        8.1466156090
  C         3.0122293531        5.5654528524        5.8136877825
  C        10.9481070911        5.5654282261        8.1466070510
  C        10.9481303537        8.3948648684        5.8137150657
  C         1.1664729839        9.9924245597        8.3948978908
  C        12.7938751465        9.9923454828        5.5654540734
  C         1.1664782492        3.9679078300        5.5654238121
  C        12.7938455816        3.9679053712        8.3948526148
  C        12.5455941891        5.8137174256        3.9679120271
  C         1.4147669037        8.1466389444        3.9678924277
  C         1.4147618557        5.8136874474        9.9924267201
  C        12.5455571441        8.1466214851        9.9924025283
  C        10.9480780928        5.5654512331        5.8137064725
  C        10.9480738578        8.3948745719        8.1465926021
  C         3.0122563738        8.3949026582        5.8136914755
  C         3.0121911530        5.5654045635        8.1465789704
  C        12.7938422193        3.9679117165        5.5654319988
  C         1.1664230287        3.9679335151        8.3948934403
  C        12.7938351599        9.9924058448        8.3948677004
  C         1.1664325749        9.9923720115        5.5654010129
  C         8.3949046903        1.1664523576        9.9923848239
  C         5.5653982927       12.7938110929        9.9924463196
  C         5.5654342020        1.1664590725        3.9678934199
  C         8.3948887280       12.7938429387        3.9679111745
  C         9.9923925346        1.4147214341        8.1466245102
  C         9.9923861614       12.5455581456        5.8136639302
  C         3.9679006001       12.5455488202        8.1465944234
  C         3.9678962328        1.4146979728        5.8137193675
  C         8.1466203394        3.0122566521        8.3948604991
  C         5.8137459786        3.0122092861        5.5654373624
  C         8.1466431982       10.9480824579        5.5654170354
  C         5.8136983911       10.9480907284        8.3949086072
  C         5.5653949687       12.7938363534        3.9678784993
  C         8.3948594110        1.1664416630        3.9679381203
  C         8.3948552977       12.7938651467        9.9923819275
  C         5.5653907519        1.1664757803        9.9924380729
  C         3.9678784700       12.5455578702        5.8136582158
  C         3.9679056974        1.4147648831        8.1466406868
  C         9.9923445433        1.4146976858        5.8137297242
  C         9.9923860895       12.5456136368        8.1465742653
  C         5.8137051386       10.9480715718        5.5654213962
  C         8.1465671458       10.9480904166        8.3948182296
  C         5.8136400142        3.0122641321        8.3949238104
  C         8.1465978652        3.0122159096        5.5654177717
  C         8.3948465130        8.1466059407        3.0122122772
  C         5.5653880049        5.8137158851        3.0122161718
  C         5.5654063018        8.1466290029       10.9480681338
  C         8.3948399655        5.8137131492       10.9480822247
  C         9.9924017348        8.3948285758        1.1664249461
  C         9.9924149857        5.5654504082       12.7938518775
  C         3.9679269317        5.5653811201        1.1664751846
  C         3.9679170654        8.3949226581       12.7938260087
  C         8.1466157562        9.9923984696        1.4147147625
  C         5.8136874705        9.9924172319       12.5455556683
  C         8.1466335075        3.9679149913       12.5455968012
  C         5.8137078756        3.9679023092        1.4147660261
  C         5.5654313945        5.8136666949       10.9480367324
  C         8.3948906071        8.1465635141       10.9481048680
  C         8.3948903961        5.8137086114        3.0121910051
  C         5.5654527378        8.1465998816        3.0122407475
  C         3.9678731732        5.5654600168       12.7938599196
  C         3.9679162057        8.3948507419        1.1664305383
  C         9.9923623367        8.3949020351       12.7938523158
  C         9.9923586480        5.5653974009        1.1664841531
  C         5.8136486031        3.9678781578       12.5455547547
  C         8.1465902462        3.9678757493        1.4147252514
  C         5.8136984528        9.9923796481        1.4147464400
  C         8.1466113769        9.9923817563       12.5455786396
  C        11.3815632447       13.2395301256        2.2841840293
  C        11.3815484043        0.7208027947       11.6761236782
  C         2.5787052546       13.2395160031       11.6761441629
  C         2.2841845283        2.5787275853        0.7208044106
  C         2.2841680958       11.3815753122       13.2395153013
  C        11.6761160948       11.3815594165        0.7208146723
  C        11.6761189820        2.5787438793       13.2395287794
  C         0.7207470340        2.2841515764        2.5787158988
  C        13.2394824027        2.2841890749       11.3815615953
  C         0.7207653332       11.6761373969       11.3815875380
  C        13.2394748999       11.6760990193        2.5787594793
  C        11.3815261065       13.2394980083       11.6760935552
  C         2.5787895459        0.7208252418       11.6760991875
  C         2.5787966141       13.2394818193        2.2841984827
  C        11.3815310186        0.7208148830        2.2842081422
  C        11.6761083700       11.3815666649       13.2395222639
  C        11.6760853454        2.5787699926        0.7208214667
  C         2.2841746897        2.5787829549       13.2394911641
  C         2.2841894289       11.3814994336        0.7208329263
  C        13.2394556556       11.6760793414       11.3815388557
  C         0.7207756498       11.6761372826        2.5787868612
  C        13.2394482307        2.2842394480        2.5787894197
  C         0.7207873965        2.2841647544       11.3815193624
  C         2.5786970159        7.7009387753        9.2643028787
  C        11.3815484877        6.2593465783        9.2643545467
  C        11.3815356136        7.7009523691        4.6959490195
  C         2.5787106494        6.2593403082        4.6959525594
  C         2.2841760654        9.5588961225        7.7009475016
  C         2.2842003437        4.4014143083        6.2593504198
  C        11.6761152494        4.4013887382        7.7009359054
  C        11.6760941669        9.5589540334        6.2593404140
  C         0.7207630788        9.2642985518        9.5588502564
  C        13.2394579033        9.2643493701        4.4013684137
  C         0.7207593795        4.6959658256        4.4014327128
  C        13.2394845968        4.6959620640        9.5588923795
  C        11.3815558660        6.2593619748        4.6959630415
  C         2.5787511281        7.7009575296        4.6959761082
  C         2.5787834942        6.2593234850        9.2643492697
  C        11.3815589239        7.7009543481        9.2643268668
  C        11.6761075663        4.4014059192        6.2593393427
  C        11.6761193243        9.5589043510        7.7009368476
  C         2.2841794109        9.5589207677        6.2593322082
  C         2.2841982027        4.4013294376        7.7009653943
  C        13.2394643011        4.6959546827        4.4014013538
  C         0.7207901513        4.6959744096        9.5589379757
  C        13.2394596982        9.2643761040        9.5589199825
  C         0.7207610100        9.2643234675        4.4013815666
  C         9.5589001631        0.7207586100        9.2643304851
  C         4.4013685668       13.2394522022        9.2643534738
  C         4.4013894213        0.7208363844        4.6959526624
  C         9.5588653916       13.2395316631        4.6959852217
  C         9.2643365969        2.5787511832        7.7009219475
  C         9.2643376074       11.3815663527        6.2593929035
  C         4.6959562484       11.3815376607        7.7009714713
  C         4.6959450991        2.5787582556        6.2592750159
  C         7.7010110813        2.2841955439        9.5588845651
  C         6.2593438848        2.2842071187        4.4013666139
  C         7.7009588956       11.6761143027        4.4013859021
  C         6.2594081265       11.6761379771        9.5589249443
  C         4.4014514321       13.2395512936        4.6960038173
  C         9.5589492816        0.7208383993        4.6959267074
  C         9.5589162703       13.2394746144        9.2643530485
  C         4.4014315600        0.7207793948        9.2643201395
  C         4.6959762970       11.3815528397        6.2593531543
  C         4.6959996343        2.5787219371        7.7008832825
  C         9.2643560007        2.5787589709        6.2593173071
  C         9.2643637511       11.3815510291        7.7009885713
  C         6.2593388562       11.6761366618        4.4014188928
  C         7.7010003788       11.6760842711        9.5589131182
  C         6.2593841995        2.2841406431        9.5588797706
  C         7.7009290650        2.2841833394        4.4013756404
  C         9.5589019705        7.7009788316        2.2841868223
  C         4.4013767043        6.2593770418        2.2841705055
  C         4.4013907921        7.7009643484       11.6761032601
  C         9.5589280103        6.2593401897       11.6760888259
  C         9.2643425912        9.5588574775        0.7208274080
  C         9.2643689681        4.4014244145       13.2394952906
  C         4.6959728443        4.4013470211        0.7208156619
  C         4.6959917751        9.5589207355       13.2395444748
  C         7.7009655426        9.2643608473        2.5787397607
  C         6.2593762038        9.2643318740       11.3815524964
  C         7.7009893046        4.6959311526       11.3815570824
  C         6.2593432914        4.6959778972        2.5787887783
  C         4.4014076284        6.2593436554       11.6761137642
  C         9.5589390696        7.7009420922       11.6761138529
  C         9.5589046864        6.2593824852        2.2841823419
  C         4.4013839474        7.7009818075        2.2841974472
  C         4.6959628645        4.4014567332       13.2395045889
  C         4.6959391673        9.5589085907        0.7208546193
  C         9.2643376342        9.5589414791       13.2395394580
  C         9.2643088202        4.4013837408        0.7207949544
  C         6.2593884749        4.6959850648       11.3816102498
  C         7.7009621989        4.6959649773        2.5787490444
  C         6.2593832619        9.2643168228        2.5787360814
  C         7.7010008798        9.2643344582       11.3815291872
   &END COORD
    &KIND C
      BASIS_SET DZVP-MOLOPT-GTH-q4
      POTENTIAL GTH-PBE-q4
      BASIS_SET AUX_FIT cFIT3 !SZV-MOLOPT-SR-GTH
    &END KIND
    &KIND F
      BASIS_SET DZVP-MOLOPT-SR-GTH-q7
      POTENTIAL GTH-PBE-q7
      BASIS_SET AUX_FIT cFIT3 !SZV-MOLOPT-SR-GTH
    &END KIND
  &END SUBSYS
!  &PRINT
!   &FORCES
!   &END
!  &END PRINT
&END FORCE_EVAL
&MOTION
&CELL_OPT
  OPTIMIZER BFGS
    &BFGS
     TRUST_RADIUS 0.1
    &END
 KEEP_SYMMETRY
 &PRINT
  &CELL
   &EACH
    CELL_OPT 1
   &END EACH
   &END CELL
  &END PRINT
&END CELL_OPT
        &END MOTION

