 C                                      
   1.00000000000000     
     9.1280000000000001    0.0000000000000000    0.0000000000000000
     0.0000000000000000   15.8050462201558144    0.0000000000000000
     0.0000000000000000    0.0000000000000000   28.8099999999999987
   C 
   120
Direct
  0.3499820628378142  0.5792491953898087  0.1142156424522397
  0.4369647625233514  0.6500770505900815  0.1196334097984519
  0.9946035303593993  0.6515162538697683  0.2771772567553699
  0.4070263282570850  0.7248684678157494  0.0924908557801556
  0.1432493512323588  0.6795881324705053  0.2860603950471385
  0.5121619202261903  0.6741879872872309  0.1648765436319448
  0.3833964558255225  0.7690653010100741  0.2452661268136015
  0.3411865219795783  0.5649368119520952  0.1995300998831753
  0.9694503590834814  0.5808885224694519  0.2487287228581077
  0.2352246992726707  0.5632573123142742  0.2374498165076425
  0.9946039722524602  0.7990553399851811  0.2770742146587948
  0.4317369059073869  0.6339886392407564  0.2042963723256719
  0.2615831712382148  0.6358980367922671  0.2662567158366851
  0.8583575778883652  0.5648102804289802  0.1307762386546250
  0.7677711420141876  0.6338129929161772  0.1259054781865561
  0.2615805609918477  0.8146250081547689  0.2661292506802160
  0.9642842968554023  0.5629315071058050  0.0928540699372254
  0.6873282155344445  0.6741826545770242  0.1652642980453131
  0.1432496741379991  0.7710290181232855  0.2859968029090162
  0.3833973669598859  0.6813590145494508  0.2453294547751836
  0.3115165220356123  0.5201637046949125  0.1545143817846332
  0.1481993977144470  0.5073874646806654  0.1473223868718497
  0.8494682084026741  0.5794371481667819  0.2160682505167609
  0.9694605638149026  0.8695368701604522  0.2485196591238583
  0.8879678933941622  0.5201818223036385  0.1758379097793768
  0.0925776587679434  0.5360044727459806  0.2290841580030471
  0.0512887287366287  0.5074502798481352  0.1830623349274418
  0.0925693911880154  0.9143325414486456  0.2288069916359320
  0.2961902965422605  0.7247795370131819  0.0585935725980292
  0.7625162484756814  0.6502607599600836  0.2105441835706097
  0.3497377611052562  0.0793822021085711  0.1138590095986871
  0.8496951444414761  0.3706748771563130  0.2162422247191519
  0.8495137984020175  0.8707974756839703  0.2158521852709994
  0.2625884591471062  0.1501915363164579  0.1193081413481894
  0.9368354429634512  0.2998608824873770  0.2107932358042442
  0.7625304528605137  0.7999723529066626  0.2104335368243504
  0.7038791767390236  0.1511025037315907  0.2771516062484995
  0.4955441724234453  0.2989474885999346  0.0529481350715956
  0.2048943758097731  0.7985357344860684  0.0528900674752146
  0.2929533443633394  0.2251325905883312  0.0923072461002379
  0.9064672258619123  0.2249185743444106  0.2377932084889929
  0.7924704391640429  0.7251826142362010  0.2375761142267370
  0.5551651782799600  0.1791162482211584  0.2860025967853161
  0.6442584180421355  0.2709346673637134  0.0440969292276423
  0.0562482132802299  0.7704633540276841  0.0440080415037975
  0.1872895959483045  0.1741953392802009  0.1646138702970290
  0.0121347226968048  0.2758552975613925  0.1654878541588179
  0.6873349818530852  0.7758631241570393  0.1651898913072010
  0.3153855001107396  0.2687524316645168  0.2451629926489897
  0.8840408988906469  0.1812997319295477  0.0849364943860621
  0.8161046121457133  0.6809856447709738  0.0848026879267101
  0.3582027102284554  0.0649164403050820  0.1991556792337816
  0.8412174858003520  0.3851270864482941  0.1309450982184149
  0.8582946117162058  0.8851251790081841  0.1305370328442093
  0.7293542275554044  0.0805854900311472  0.2486491383245172
  0.4700727861525186  0.3694628712118507  0.0814512102697618
  0.2300443646014996  0.8691642317748709  0.0813390062042427
  0.4636929532413052  0.0629863983686840  0.2371821236278664
  0.7357329283731916  0.3870611617952364  0.0929178388679280
  0.9642645581149309  0.8867984078884511  0.0926172496155654
  0.7038810627127307  0.2986089176316046  0.2772260927094888
  0.4955423673952339  0.1514434077919634  0.0528736112931077
  0.2048938677220780  0.6509948341058077  0.0529930585995088
  0.2676622906430639  0.1339147176222388  0.2039525248313554
  0.9317620003310689  0.3161328849109125  0.1261482716923399
  0.7677588929223718  0.8160657704435601  0.1257709166722625
  0.4369897405963210  0.1354740103129078  0.2660846974899488
  0.7624356055888521  0.3145755949801048  0.0640147295538595
  0.9379136458301618  0.8141543893835894  0.0638114413402440
  0.8412048544447083  0.0650411065904237  0.1307824805648946
  0.3582153399281391  0.3850179561328046  0.1993182665483222
  0.3411234854884896  0.8852300961441554  0.1992908717637911
  0.9317623709882684  0.1340452369001752  0.1260561377069464
  0.2676620210558386  0.3160097733988500  0.2040446323445269
  0.4317245005705179  0.8162349354938081  0.2041617563014562
  0.4369864742341378  0.3142643723166772  0.2661764784698734
  0.7624389261050958  0.1357885640560633  0.0639229269031865
  0.9379161306269649  0.6354248318936708  0.0639388473205574
  0.7357299959555503  0.0632096102401321  0.0927552370048421
  0.4636961108887948  0.3868455154820765  0.2373447346791253
  0.2352048349832361  0.8871152181529146  0.2372130000805303
  0.0121263858368582  0.1742018032015561  0.1654371408408355
  0.1872979626448567  0.2758500893482471  0.1646645738028296
  0.5121686579687008  0.7758685112869048  0.1648021313731936
  0.5551652567529055  0.2705622780930400  0.2860492778125487
  0.6442584626872060  0.1794894567816313  0.0440502368342073
  0.0562478083188633  0.6790218349848248  0.0440716061200984
  0.3153879672621300  0.1810468947787484  0.2451170067859599
  0.8840383748733649  0.2690036426401307  0.0849824950405347
  0.8161038012864308  0.7686924667015085  0.0847394115328128
  0.3880496041948798  0.0201937303698079  0.1541574167371695
  0.8113887310275245  0.4298612738900903  0.1759399024314710
  0.8879582106071197  0.9298932624598684  0.1755579542489642
  0.5513847832519037  0.0074419758129895  0.1470287579428560
  0.6480519034006594  0.4426165640825008  0.1830718975420389
  0.0512800958420562  0.9426694416018322  0.1827463583162863
  0.8496748422136869  0.0792369938253642  0.2160930008488280
  0.3497580441076515  0.3708084057906850  0.1140082281252166
  0.3500276597501946  0.8706185246585221  0.1139995800457690
  0.7293641081076218  0.3692206542897641  0.2487947205007182
  0.4700630341751155  0.0808335168875896  0.0813055987720992
  0.2300340838488895  0.5805127197257000  0.0815480662990063
  0.8113594031004780  0.0201870599412040  0.1757281846829003
  0.3880789699475184  0.4298604608684267  0.1543691353595639
  0.3115068522491493  0.9298636599044702  0.1542344307923225
  0.6063785631614518  0.0357677874765706  0.2288739714220387
  0.5930496679393569  0.4142794517034326  0.1012262638774930
  0.1069127408599456  0.9140477216256375  0.1009828944658951
  0.6480320741122519  0.0073939519439618  0.1828567695484432
  0.5514041549938233  0.4426500602550032  0.1472437072897836
  0.1481909936220586  0.9425953394930423  0.1470063446305034
  0.6063823630706995  0.4140974036632097  0.2290612852417049
  0.5930457261159131  0.0359578742519197  0.1010389466400591
  0.1069210317584646  0.5357176318193229  0.1012600559891299
  0.4042070681989868  0.2251861612818173  0.0585237889141731
  0.7952140557640970  0.2248649892131437  0.2715764036618591
  0.9033074974472419  0.7252715166864313  0.2714731793293271
  0.9368236024936083  0.1500625194261397  0.2107180322845442
  0.2626002665937662  0.2999875655750401  0.1193833127287335
  0.4369789716382211  0.7997921623639110  0.1195227430112250
